min: 325 x1 + 881 x2 + 77 x3 + 1000 x4 + 902 x5 + 664 x6 + 477 x7 + 215 x8 + 632 x9 + 133 x10;

r1: x9 >= 1;
r2: x2 + x1 >= 1;
r3: x1 >= 1;
r4: x8 + x5 + x6 >= 1;
r5: x8 + x5 >= 1;
r6: x7 + x10 + x5 + x9 >= 1;
r7: x10 >= 1;
r8: x7 + x1 + x8 >= 1;
r9: x2 + x4 >= 1;
r10: x10 + x4 + x7 + x3 >= 1;
r11: x5 >= 1;
r12: x9 + x10 + x2 >= 1;
r13: x5 + x10 >= 1;
r14: x7 + x4 + x10 >= 1;
r15: x8 >= 1;
r16: x9 >= 1;
r17: x1 + x7 >= 1;
r18: x8 + x5 + x1 >= 1;
r19: x3 + x9 + x6 >= 1;
r20: x4 >= 1;
r21: x1 + x7 >= 1;
r22: x9 + x1 >= 1;
r23: x2 + x10 + x8 >= 1;
r24: x7 + x9 + x10 + x4 >= 1;
r25: x8 + x2 + x5 >= 1;
r26: x6 + x3 + x4 >= 1;
r27: x10 + x2 + x5 + x3 >= 1;
r28: x7 >= 1;
r29: x1 + x4 + x7 + x9 >= 1;
r30: x10 >= 1;

bin x1, x2, x3, x4, x5, x6, x7, x8, x9, x10;
